\ LP format - for model browsing. Use MPS format to capture full model detail.
Maximize
  8 j1[0] + 10 j1[1] + 8 j2[0] + 10 j2[1]
Subject To
 R0: 3 j1[0] + 5 j1[1] + 3 j2[0] + 5 j2[1] <= 800
 R1: 5 j1[0] + 4 j1[1] + 5 j2[0] + 4 j2[1] <= 750
Bounds
End
